0	40	50	0	0	1236	0	0	0
1	45	70	-20	825	870	90	3	0
2	42	68	-10	727	782	90	4	0
3	40	69	20	621	702	90	0	1
4	38	70	10	534	605	90	0	2
5	25	85	-20	652	721	90	11	0
6	22	75	30	30	92	90	0	10
7	22	85	-40	567	620	90	9	0
8	20	80	-10	384	429	90	12	0
9	20	85	40	475	528	90	0	7
10	18	75	-30	99	148	90	6	0
11	15	75	20	179	254	90	0	5
12	15	80	10	278	345	90	0	8